NAME : kroB200.tsp
TYPE : TOUR
DIMENSION : 200
TOUR_LENGTH : 33927.1540988767
TOUR_SECTION
1
95
98
174
12
161
71
27
176
180
94
57
34
7
84
58
52
116
163
54
154
191
177
143
171
88
22
23
104
55
144
193
160
153
24
18
105
77
103
183
140
106
159
50
164
185
118
14
125
120
42
110
82
121
147
33
15
112
128
51
156
195
48
31
63
187
126
13
155
78
17
192
41
148
102
200
130
44
135
162
96
137
151
19
92
119
36
45
16
2
109
64
182
83
4
6
87
114
168
133
66
145
199
131
178
74
165
60
186
196
43
89
169
72
37
184
141
65
124
127
188
79
113
179
81
47
173
139
115
20
80
38
152
108
166
138
86
49
134
181
30
75
150
101
100
56
26
62
132
5
197
67
194
117
190
111
68
10
123
142
21
90
146
46
25
9
61
35
172
157
107
32
167
175
59
136
29
8
99
97
76
91
129
28
158
3
11
93
122
85
73
53
170
149
70
198
39
40
189
69
-1
